<?xml version = "1.0" encoding="UTF-8" standalone="yes"?>
<CPLEXSolution version="1.2">
 <header
   problemName="IloCplex"
   solutionName="p0"
   solutionIndex="-1"
   objectiveValue="462160"
   solutionTypeValue="3"
   solutionTypeString="primal"
   solutionStatusValue="127"
   solutionStatusString="integer feasible solution"
   solutionMethodString="mip"
   primalFeasible="0"
   dualFeasible="0"
   writeLevel="3"/>
 <quality
   epInt="1.0000000000000001e-05"
   epRHS="9.9999999999999995e-07"
   maxIntInfeas="0"
   maxPrimalInfeas="0"
   maxX="1"
   maxSlack="1"/>
 <variables>
  <variable name="w2_1" index="29" value="1"/>
  <variable name="w2_2" index="30" value="1"/>
  <variable name="w2_3" index="31" value="1"/>
  <variable name="w2_12" index="40" value="1"/>
  <variable name="w3_1" index="43" value="1"/>
  <variable name="w3_2" index="44" value="1"/>
  <variable name="w3_3" index="45" value="1"/>
  <variable name="w3_12" index="54" value="1"/>
  <variable name="k2" index="198" value="1"/>
  <variable name="k3" index="199" value="1"/>
  <variable name="u1" index="211" value="1"/>
  <variable name="u2" index="212" value="1"/>
  <variable name="u3" index="213" value="1"/>
  <variable name="u12" index="222" value="1"/>
  <variable name="x0_90" index="314" value="1"/>
  <variable name="x1_70" index="394" value="1"/>
  <variable name="x2_22" index="446" value="1"/>
  <variable name="x3_18" index="542" value="1"/>
  <variable name="x4_62" index="686" value="1"/>
  <variable name="x5_78" index="802" value="1"/>
  <variable name="x6_54" index="878" value="1"/>
  <variable name="x7_19" index="943" value="1"/>
  <variable name="x8_58" index="1082" value="1"/>
  <variable name="x9_24" index="1148" value="1"/>
  <variable name="x10_97" index="1321" value="1"/>
  <variable name="x11_86" index="1410" value="1"/>
  <variable name="x12_59" index="1483" value="1"/>
  <variable name="x13_40" index="1564" value="1"/>
  <variable name="x14_25" index="1649" value="1"/>
  <variable name="x15_21" index="1745" value="1"/>
  <variable name="x16_99" index="1923" value="1"/>
  <variable name="x17_15" index="1939" value="1"/>
  <variable name="x18_3" index="2027" value="1"/>
  <variable name="x19_7" index="2131" value="1"/>
  <variable name="x20_33" index="2257" value="1"/>
  <variable name="x21_34" index="2358" value="1"/>
  <variable name="x22_2" index="2426" value="1"/>
  <variable name="x23_65" index="2589" value="1"/>
  <variable name="x24_9" index="2633" value="1"/>
  <variable name="x25_14" index="2738" value="1"/>
  <variable name="x26_77" index="2901" value="1"/>
  <variable name="x27_84" index="3008" value="1"/>
  <variable name="x28_53" index="3077" value="1"/>
  <variable name="x29_88" index="3212" value="1"/>
  <variable name="x30_56" index="3280" value="1"/>
  <variable name="x31_89" index="3413" value="1"/>
  <variable name="x32_72" index="3496" value="1"/>
  <variable name="x33_20" index="3544" value="1"/>
  <variable name="x34_42" index="3666" value="1"/>
  <variable name="x35_52" index="3776" value="1"/>
  <variable name="x36_55" index="3879" value="1"/>
  <variable name="x37_63" index="3987" value="1"/>
  <variable name="x38_91" index="4115" value="1"/>
  <variable name="x39_71" index="4195" value="1"/>
  <variable name="x40_13" index="4237" value="1"/>
  <variable name="x41_94" index="4418" value="1"/>
  <variable name="x42_81" index="4505" value="1"/>
  <variable name="x43_61" index="4585" value="1"/>
  <variable name="x44_95" index="4719" value="1"/>
  <variable name="x45_69" index="4793" value="1"/>
  <variable name="x46_57" index="4881" value="1"/>
  <variable name="x47_60" index="4984" value="1"/>
  <variable name="x48_51" index="5075" value="1"/>
  <variable name="x49_74" index="5198" value="1"/>
  <variable name="x50_73" index="5297" value="1"/>
  <variable name="x51_48" index="5372" value="1"/>
  <variable name="x52_35" index="5459" value="1"/>
  <variable name="x53_28" index="5552" value="1"/>
  <variable name="x54_6" index="5630" value="1"/>
  <variable name="x55_36" index="5760" value="1"/>
  <variable name="x56_30" index="5854" value="1"/>
  <variable name="x57_46" index="5970" value="1"/>
  <variable name="x58_8" index="6032" value="1"/>
  <variable name="x59_12" index="6136" value="1"/>
  <variable name="x60_47" index="6271" value="1"/>
  <variable name="x61_43" index="6367" value="1"/>
  <variable name="x62_4" index="6428" value="1"/>
  <variable name="x63_37" index="6561" value="1"/>
  <variable name="x64_96" index="6720" value="1"/>
  <variable name="x65_23" index="6747" value="1"/>
  <variable name="x66_67" index="6891" value="1"/>
  <variable name="x67_66" index="6990" value="1"/>
  <variable name="x68_93" index="7117" value="1"/>
  <variable name="x69_45" index="7169" value="1"/>
  <variable name="x70_1" index="7225" value="1"/>
  <variable name="x71_39" index="7363" value="1"/>
  <variable name="x72_32" index="7456" value="1"/>
  <variable name="x73_50" index="7574" value="1"/>
  <variable name="x74_49" index="7673" value="1"/>
  <variable name="x75_79" index="7803" value="1"/>
  <variable name="x76_92" index="7916" value="1"/>
  <variable name="x77_26" index="7950" value="1"/>
  <variable name="x78_5" index="8029" value="1"/>
  <variable name="x79_75" index="8199" value="1"/>
  <variable name="x80_83" index="8307" value="1"/>
  <variable name="x81_17" index="8341" value="1"/>
  <variable name="x82_87" index="8511" value="1"/>
  <variable name="x83_80" index="8604" value="1"/>
  <variable name="x84_27" index="8651" value="1"/>
  <variable name="x85_98" index="8822" value="1"/>
  <variable name="x86_11" index="8835" value="1"/>
  <variable name="x87_82" index="9006" value="1"/>
  <variable name="x88_29" index="9053" value="1"/>
  <variable name="x89_31" index="9155" value="1"/>
  <variable name="x90_0" index="9224" value="1"/>
  <variable name="x91_38" index="9362" value="1"/>
  <variable name="x92_76" index="9500" value="1"/>
  <variable name="x93_68" index="9592" value="1"/>
  <variable name="x94_41" index="9665" value="1"/>
  <variable name="x95_44" index="9768" value="1"/>
  <variable name="x96_64" index="9888" value="1"/>
  <variable name="x97_10" index="9934" value="1"/>
  <variable name="x98_85" index="10109" value="1"/>
  <variable name="x99_16" index="10140" value="1"/>
 </variables>
</CPLEXSolution>
